50
9127

374 267
716 492
556 903
656 886
583 581
294 729
835 359
899 628
784 440
431 222
180 288
280 399
883 633
105 544
799 584
78 472
525 180
410 503
333 18
591 788
536 394
951 554
704 692
673 636
570 133
860 555
6 288
336 264
941 395
770 242
961 648
352 425
491 595
205 75
151 78
110 98
299 984
165 877
985 21
246 628
267 995
218 338
681 677
914 62
306 643
163 940
39 974
426 956
857 324
606 828
